<?xml version = "1.0" encoding="UTF-8" standalone="yes"?>
<CPLEXSolution version="1.2">
 <header
   problemName="IloCplex"
   solutionName="p0"
   solutionIndex="-1"
   objectiveValue="28504172"
   solutionTypeValue="3"
   solutionTypeString="primal"
   solutionStatusValue="127"
   solutionStatusString="integer feasible solution"
   solutionMethodString="mip"
   primalFeasible="0"
   dualFeasible="0"
   writeLevel="3"/>
 <quality
   epInt="1.0000000000000001e-05"
   epRHS="9.9999999999999995e-07"
   maxIntInfeas="0"
   maxPrimalInfeas="0"
   maxX="1"
   maxSlack="1"/>
 <variables>
  <variable name="w4_0" index="52" value="1"/>
  <variable name="w8_0" index="104" value="1"/>
  <variable name="k4" index="173" value="1"/>
  <variable name="k8" index="177" value="1"/>
  <variable name="u0" index="182" value="1"/>
  <variable name="x0_172" index="367" value="1"/>
  <variable name="x1_44" index="439" value="1"/>
  <variable name="x2_81" index="676" value="1"/>
  <variable name="x3_140" index="935" value="1"/>
  <variable name="x4_79" index="1074" value="1"/>
  <variable name="x5_86" index="1281" value="1"/>
  <variable name="x6_191" index="1586" value="1"/>
  <variable name="x7_31" index="1626" value="1"/>
  <variable name="x8_90" index="1885" value="1"/>
  <variable name="x9_106" index="2101" value="1"/>
  <variable name="x10_3" index="2198" value="1"/>
  <variable name="x11_22" index="2417" value="1"/>
  <variable name="x12_187" index="2782" value="1"/>
  <variable name="x13_62" index="2857" value="1"/>
  <variable name="x14_103" index="3098" value="1"/>
  <variable name="x15_130" index="3325" value="1"/>
  <variable name="x16_171" index="3566" value="1"/>
  <variable name="x17_166" index="3761" value="1"/>
  <variable name="x18_146" index="3941" value="1"/>
  <variable name="x19_20" index="4015" value="1"/>
  <variable name="x20_96" index="4291" value="1"/>
  <variable name="x21_199" index="4594" value="1"/>
  <variable name="x22_116" index="4711" value="1"/>
  <variable name="x23_40" index="4835" value="1"/>
  <variable name="x24_107" index="5102" value="1"/>
  <variable name="x25_35" index="5230" value="1"/>
  <variable name="x26_16" index="5411" value="1"/>
  <variable name="x27_54" index="5649" value="1"/>
  <variable name="x28_161" index="5956" value="1"/>
  <variable name="x29_185" index="6180" value="1"/>
  <variable name="x30_17" index="6212" value="1"/>
  <variable name="x31_56" index="6451" value="1"/>
  <variable name="x32_165" index="6760" value="1"/>
  <variable name="x33_74" index="6869" value="1"/>
  <variable name="x34_92" index="7087" value="1"/>
  <variable name="x35_160" index="7355" value="1"/>
  <variable name="x36_194" index="7589" value="1"/>
  <variable name="x37_10" index="7605" value="1"/>
  <variable name="x38_110" index="7905" value="1"/>
  <variable name="x39_14" index="8009" value="1"/>
  <variable name="x40_43" index="8238" value="1"/>
  <variable name="x41_78" index="8473" value="1"/>
  <variable name="x42_49" index="8644" value="1"/>
  <variable name="x43_123" index="8918" value="1"/>
  <variable name="x44_119" index="9114" value="1"/>
  <variable name="x45_13" index="9208" value="1"/>
  <variable name="x46_66" index="9461" value="1"/>
  <variable name="x47_29" index="9624" value="1"/>
  <variable name="x48_117" index="9912" value="1"/>
  <variable name="x49_139" index="10134" value="1"/>
  <variable name="x50_33" index="10228" value="1"/>
  <variable name="x51_46" index="10441" value="1"/>
  <variable name="x52_72" index="10667" value="1"/>
  <variable name="x53_21" index="10816" value="1"/>
  <variable name="x54_32" index="11027" value="1"/>
  <variable name="x55_98" index="11293" value="1"/>
  <variable name="x56_193" index="11588" value="1"/>
  <variable name="x57_149" index="11744" value="1"/>
  <variable name="x58_164" index="11959" value="1"/>
  <variable name="x59_83" index="12078" value="1"/>
  <variable name="x60_87" index="12282" value="1"/>
  <variable name="x61_157" index="12552" value="1"/>
  <variable name="x62_76" index="12671" value="1"/>
  <variable name="x63_73" index="12868" value="1"/>
  <variable name="x64_181" index="13176" value="1"/>
  <variable name="x65_95" index="13290" value="1"/>
  <variable name="x66_121" index="13516" value="1"/>
  <variable name="x67_24" index="13619" value="1"/>
  <variable name="x68_126" index="13921" value="1"/>
  <variable name="x69_57" index="14052" value="1"/>
  <variable name="x70_147" index="14342" value="1"/>
  <variable name="x71_183" index="14578" value="1"/>
  <variable name="x72_118" index="14713" value="1"/>
  <variable name="x73_88" index="14883" value="1"/>
  <variable name="x74_12" index="15007" value="1"/>
  <variable name="x75_80" index="15275" value="1"/>
  <variable name="x76_143" index="15538" value="1"/>
  <variable name="x77_19" index="15614" value="1"/>
  <variable name="x78_5" index="15800" value="1"/>
  <variable name="x79_42" index="16037" value="1"/>
  <variable name="x80_101" index="16296" value="1"/>
  <variable name="x81_11" index="16406" value="1"/>
  <variable name="x82_137" index="16732" value="1"/>
  <variable name="x83_154" index="16949" value="1"/>
  <variable name="x84_188" index="17183" value="1"/>
  <variable name="x85_25" index="17220" value="1"/>
  <variable name="x86_170" index="17565" value="1"/>
  <variable name="x87_192" index="17787" value="1"/>
  <variable name="x88_39" index="17834" value="1"/>
  <variable name="x89_151" index="18146" value="1"/>
  <variable name="x90_94" index="18289" value="1"/>
  <variable name="x91_134" index="18529" value="1"/>
  <variable name="x92_176" index="18771" value="1"/>
  <variable name="x93_52" index="18847" value="1"/>
  <variable name="x94_2" index="18997" value="1"/>
  <variable name="x95_162" index="19357" value="1"/>
  <variable name="x96_184" index="19579" value="1"/>
  <variable name="x97_132" index="19727" value="1"/>
  <variable name="x98_68" index="19863" value="1"/>
  <variable name="x99_18" index="20013" value="1"/>
  <variable name="x100_113" index="20308" value="1"/>
  <variable name="x101_27" index="20422" value="1"/>
  <variable name="x102_179" index="20774" value="1"/>
  <variable name="x103_0" index="20795" value="1"/>
  <variable name="x104_189" index="21184" value="1"/>
  <variable name="x105_127" index="21322" value="1"/>
  <variable name="x106_135" index="21530" value="1"/>
  <variable name="x107_59" index="21654" value="1"/>
  <variable name="x108_182" index="21977" value="1"/>
  <variable name="x109_112" index="22107" value="1"/>
  <variable name="x110_144" index="22339" value="1"/>
  <variable name="x111_69" index="22464" value="1"/>
  <variable name="x112_55" index="22650" value="1"/>
  <variable name="x113_169" index="22964" value="1"/>
  <variable name="x114_38" index="23033" value="1"/>
  <variable name="x115_85" index="23280" value="1"/>
  <variable name="x116_41" index="23436" value="1"/>
  <variable name="x117_167" index="23762" value="1"/>
  <variable name="x118_196" index="23991" value="1"/>
  <variable name="x119_155" index="24150" value="1"/>
  <variable name="x120_136" index="24331" value="1"/>
  <variable name="x121_114" index="24509" value="1"/>
  <variable name="x122_47" index="24642" value="1"/>
  <variable name="x123_61" index="24856" value="1"/>
  <variable name="x124_89" index="25084" value="1"/>
  <variable name="x125_60" index="25255" value="1"/>
  <variable name="x126_145" index="25540" value="1"/>
  <variable name="x127_159" index="25754" value="1"/>
  <variable name="x128_93" index="25888" value="1"/>
  <variable name="x129_36" index="26031" value="1"/>
  <variable name="x130_6" index="26201" value="1"/>
  <variable name="x131_197" index="26592" value="1"/>
  <variable name="x132_124" index="26719" value="1"/>
  <variable name="x133_158" index="26953" value="1"/>
  <variable name="x134_198" index="27193" value="1"/>
  <variable name="x135_178" index="27373" value="1"/>
  <variable name="x136_168" index="27563" value="1"/>
  <variable name="x137_63" index="27658" value="1"/>
  <variable name="x138_50" index="27845" value="1"/>
  <variable name="x139_67" index="28062" value="1"/>
  <variable name="x140_142" index="28337" value="1"/>
  <variable name="x141_77" index="28472" value="1"/>
  <variable name="x142_173" index="28768" value="1"/>
  <variable name="x143_65" index="28860" value="1"/>
  <variable name="x144_23" index="29018" value="1"/>
  <variable name="x145_153" index="29348" value="1"/>
  <variable name="x146_26" index="29421" value="1"/>
  <variable name="x147_111" index="29706" value="1"/>
  <variable name="x148_186" index="29981" value="1"/>
  <variable name="x149_120" index="30115" value="1"/>
  <variable name="x150_133" index="30328" value="1"/>
  <variable name="x151_34" index="30429" value="1"/>
  <variable name="x152_99" index="30694" value="1"/>
  <variable name="x153_100" index="30895" value="1"/>
  <variable name="x154_15" index="31010" value="1"/>
  <variable name="x155_152" index="31347" value="1"/>
  <variable name="x156_115" index="31510" value="1"/>
  <variable name="x157_48" index="31643" value="1"/>
  <variable name="x158_148" index="31943" value="1"/>
  <variable name="x159_75" index="32070" value="1"/>
  <variable name="x160_102" index="32297" value="1"/>
  <variable name="x161_128" index="32523" value="1"/>
  <variable name="x162_9" index="32604" value="1"/>
  <variable name="x163_125" index="32920" value="1"/>
  <variable name="x164_108" index="33103" value="1"/>
  <variable name="x165_104" index="33299" value="1"/>
  <variable name="x166_28" index="33423" value="1"/>
  <variable name="x167_91" index="33686" value="1"/>
  <variable name="x168_131" index="33926" value="1"/>
  <variable name="x169_1" index="33996" value="1"/>
  <variable name="x170_163" index="34358" value="1"/>
  <variable name="x171_175" index="34570" value="1"/>
  <variable name="x172_82" index="34677" value="1"/>
  <variable name="x173_150" index="34945" value="1"/>
  <variable name="x174_97" index="35092" value="1"/>
  <variable name="x175_138" index="35333" value="1"/>
  <variable name="x176_64" index="35459" value="1"/>
  <variable name="x177_141" index="35736" value="1"/>
  <variable name="x178_58" index="35853" value="1"/>
  <variable name="x179_84" index="36079" value="1"/>
  <variable name="x180_180" index="36375" value="1"/>
  <variable name="x181_30" index="36425" value="1"/>
  <variable name="x182_70" index="36665" value="1"/>
  <variable name="x183_7" index="36802" value="1"/>
  <variable name="x184_53" index="37048" value="1"/>
  <variable name="x185_156" index="37351" value="1"/>
  <variable name="x186_105" index="37500" value="1"/>
  <variable name="x187_122" index="37717" value="1"/>
  <variable name="x188_195" index="37990" value="1"/>
  <variable name="x189_174" index="38169" value="1"/>
  <variable name="x190_4" index="38199" value="1"/>
  <variable name="x191_109" index="38504" value="1"/>
  <variable name="x192_177" index="38772" value="1"/>
  <variable name="x193_71" index="38866" value="1"/>
  <variable name="x194_45" index="39040" value="1"/>
  <variable name="x195_129" index="39324" value="1"/>
  <variable name="x196_190" index="39585" value="1"/>
  <variable name="x197_8" index="39603" value="1"/>
  <variable name="x198_51" index="39846" value="1"/>
  <variable name="x199_37" index="40032" value="1"/>
 </variables>
</CPLEXSolution>
